DIMENSION :18
NODE_COORD_SECTION
1 -32.176404621576296 -55.388145900806585
2 61.57914404511601 -27.875154232564952
3 74.39619500392033 96.63639946307256
4 -90.88838760749533 -79.03465840208443
5 44.53216941535058 -48.144306117333116
6 -10.19021641353828 -77.91220986190896
7 -17.930667313483212 74.46078955621013
8 -84.99480609754104 -28.812959701041606
9 33.89597100007998 -98.49827206613429
10 -82.02347332544882 90.22040431587493
11 -67.17102859096231 0.6121500974775245
12 77.51136014831758 6.960421815889532
13 -6.73914938697007 -43.152914779402195
14 -71.86120795045082 -87.56902213235729
15 65.90503633356323 56.34024911974046
16 -5.680694306394884 -35.57866085102795
17 -9.804710260674312 18.276185314785764
18 83.72984915452554 -20.31325751616579
EOF
